c t mc
c file mc2022_track1_051.cnf
p cnf 1060 2236
1 0
3 2 34 0
-34 -3 0
-34 -2 0
4 -34 35 0
-35 -4 0
-35 34 0
5 -35 36 0
-36 -5 0
-36 35 0
6 -36 37 0
-37 -6 0
-37 36 0
7 -37 38 0
-38 -7 0
-38 37 0
8 -38 39 0
-39 -8 0
-39 38 0
9 -39 40 0
-40 -9 0
-40 39 0
10 -40 41 0
-41 -10 0
-41 40 0
11 -41 42 0
-42 -11 0
-42 41 0
12 -42 43 0
-43 -12 0
-43 42 0
13 -43 44 0
-44 -13 0
-44 43 0
14 -44 45 0
-45 -14 0
-45 44 0
15 -45 46 0
-46 -15 0
-46 45 0
16 -46 47 0
-47 -16 0
-47 46 0
17 -47 48 0
-48 -17 0
-48 47 0
18 -48 49 0
-49 -18 0
-49 48 0
19 -49 50 0
-50 -19 0
-50 49 0
20 -50 51 0
-51 -20 0
-51 50 0
21 -51 52 0
-52 -21 0
-52 51 0
22 -52 53 0
-53 -22 0
-53 52 0
23 -53 54 0
-54 -23 0
-54 53 0
24 -54 55 0
-55 -24 0
-55 54 0
25 -55 56 0
-56 -25 0
-56 55 0
26 -56 57 0
-57 -26 0
-57 56 0
27 -57 58 0
-58 -27 0
-58 57 0
28 -58 59 0
-59 -28 0
-59 58 0
29 -59 60 0
-60 -29 0
-60 59 0
30 -60 61 0
-61 -30 0
-61 60 0
31 -61 62 0
-62 -31 0
-62 61 0
32 -62 63 0
-63 -32 0
-63 62 0
-33 -63 64 0
-64 33 0
-64 63 0
-64 0
66 65 97 0
-97 -66 0
-97 -65 0
67 -97 98 0
-98 -67 0
-98 97 0
68 -98 99 0
-99 -68 0
-99 98 0
69 -99 100 0
-100 -69 0
-100 99 0
70 -100 101 0
-101 -70 0
-101 100 0
71 -101 102 0
-102 -71 0
-102 101 0
72 -102 103 0
-103 -72 0
-103 102 0
73 -103 104 0
-104 -73 0
-104 103 0
74 -104 105 0
-105 -74 0
-105 104 0
75 -105 106 0
-106 -75 0
-106 105 0
76 -106 107 0
-107 -76 0
-107 106 0
77 -107 108 0
-108 -77 0
-108 107 0
78 -108 109 0
-109 -78 0
-109 108 0
79 -109 110 0
-110 -79 0
-110 109 0
80 -110 111 0
-111 -80 0
-111 110 0
81 -111 112 0
-112 -81 0
-112 111 0
82 -112 113 0
-113 -82 0
-113 112 0
83 -113 114 0
-114 -83 0
-114 113 0
84 -114 115 0
-115 -84 0
-115 114 0
85 -115 116 0
-116 -85 0
-116 115 0
86 -116 117 0
-117 -86 0
-117 116 0
87 -117 118 0
-118 -87 0
-118 117 0
88 -118 119 0
-119 -88 0
-119 118 0
89 -119 120 0
-120 -89 0
-120 119 0
90 -120 121 0
-121 -90 0
-121 120 0
91 -121 122 0
-122 -91 0
-122 121 0
92 -122 123 0
-123 -92 0
-123 122 0
93 -123 124 0
-124 -93 0
-124 123 0
94 -124 125 0
-125 -94 0
-125 124 0
95 -125 126 0
-126 -95 0
-126 125 0
96 -126 127 0
-127 -96 0
-127 126 0
-127 0
159 158 160 0
-160 -159 0
-160 -158 0
157 -160 161 0
-161 -157 0
-161 160 0
-156 161 162 0
-162 156 0
-162 -161 0
-155 -162 163 0
-163 155 0
-163 162 0
154 163 164 0
-164 -154 0
-164 -163 0
-153 164 165 0
-165 153 0
-165 -164 0
152 165 166 0
-166 -152 0
-166 -165 0
151 -166 167 0
-167 -151 0
-167 166 0
-150 167 168 0
-168 150 0
-168 -167 0
149 168 169 0
-169 -149 0
-169 -168 0
148 -169 170 0
-170 -148 0
-170 169 0
147 -170 171 0
-171 -147 0
-171 170 0
146 -171 172 0
-172 -146 0
-172 171 0
145 -172 173 0
-173 -145 0
-173 172 0
144 -173 174 0
-174 -144 0
-174 173 0
143 -174 175 0
-175 -143 0
-175 174 0
142 -175 176 0
-176 -142 0
-176 175 0
141 -176 177 0
-177 -141 0
-177 176 0
140 -177 178 0
-178 -140 0
-178 177 0
139 -178 179 0
-179 -139 0
-179 178 0
138 -179 180 0
-180 -138 0
-180 179 0
137 -180 181 0
-181 -137 0
-181 180 0
136 -181 182 0
-182 -136 0
-182 181 0
135 -182 183 0
-183 -135 0
-183 182 0
134 -183 184 0
-184 -134 0
-184 183 0
133 -184 185 0
-185 -133 0
-185 184 0
132 -185 186 0
-186 -132 0
-186 185 0
131 -186 187 0
-187 -131 0
-187 186 0
130 -187 188 0
-188 -130 0
-188 187 0
129 -188 189 0
-189 -129 0
-189 188 0
128 189 190 0
-190 -128 0
-190 -189 0
-190 0
-193 192 -191 0
-193 -192 191 0
193 -192 -191 0
193 192 191 0
194 -225 256 0
-256 -194 0
-256 225 0
-194 225 257 0
-257 194 0
-257 -225 0
195 -226 258 0
-258 -195 0
-258 226 0
-195 226 259 0
-259 195 0
-259 -226 0
196 -227 260 0
-260 -196 0
-260 227 0
-196 227 261 0
-261 196 0
-261 -227 0
197 -228 262 0
-262 -197 0
-262 228 0
-197 228 263 0
-263 197 0
-263 -228 0
198 -229 264 0
-264 -198 0
-264 229 0
-198 229 265 0
-265 198 0
-265 -229 0
199 -230 266 0
-266 -199 0
-266 230 0
-199 230 267 0
-267 199 0
-267 -230 0
200 -231 268 0
-268 -200 0
-268 231 0
-200 231 269 0
-269 200 0
-269 -231 0
201 -232 270 0
-270 -201 0
-270 232 0
-201 232 271 0
-271 201 0
-271 -232 0
202 -233 272 0
-272 -202 0
-272 233 0
-202 233 273 0
-273 202 0
-273 -233 0
203 -234 274 0
-274 -203 0
-274 234 0
-203 234 275 0
-275 203 0
-275 -234 0
204 -235 276 0
-276 -204 0
-276 235 0
-204 235 277 0
-277 204 0
-277 -235 0
205 -236 278 0
-278 -205 0
-278 236 0
-205 236 279 0
-279 205 0
-279 -236 0
206 -237 280 0
-280 -206 0
-280 237 0
-206 237 281 0
-281 206 0
-281 -237 0
207 -238 282 0
-282 -207 0
-282 238 0
-207 238 283 0
-283 207 0
-283 -238 0
208 -239 284 0
-284 -208 0
-284 239 0
-208 239 285 0
-285 208 0
-285 -239 0
209 -240 286 0
-286 -209 0
-286 240 0
-209 240 287 0
-287 209 0
-287 -240 0
210 -241 288 0
-288 -210 0
-288 241 0
-210 241 289 0
-289 210 0
-289 -241 0
211 -242 290 0
-290 -211 0
-290 242 0
-211 242 291 0
-291 211 0
-291 -242 0
212 -243 292 0
-292 -212 0
-292 243 0
-212 243 293 0
-293 212 0
-293 -243 0
213 -244 294 0
-294 -213 0
-294 244 0
-213 244 295 0
-295 213 0
-295 -244 0
214 -245 296 0
-296 -214 0
-296 245 0
-214 245 297 0
-297 214 0
-297 -245 0
215 -246 298 0
-298 -215 0
-298 246 0
-215 246 299 0
-299 215 0
-299 -246 0
216 -247 300 0
-300 -216 0
-300 247 0
-216 247 301 0
-301 216 0
-301 -247 0
217 -248 302 0
-302 -217 0
-302 248 0
-217 248 303 0
-303 217 0
-303 -248 0
218 -249 304 0
-304 -218 0
-304 249 0
-218 249 305 0
-305 218 0
-305 -249 0
219 -250 306 0
-306 -219 0
-306 250 0
-219 250 307 0
-307 219 0
-307 -250 0
220 -251 308 0
-308 -220 0
-308 251 0
-220 251 309 0
-309 220 0
-309 -251 0
221 -252 310 0
-310 -221 0
-310 252 0
-221 252 311 0
-311 221 0
-311 -252 0
222 -253 312 0
-312 -222 0
-312 253 0
-222 253 313 0
-313 222 0
-313 -253 0
223 -254 314 0
-314 -223 0
-314 254 0
-223 254 315 0
-315 223 0
-315 -254 0
224 -255 316 0
-316 -224 0
-316 255 0
-316 315 317 0
-317 316 0
-317 -315 0
317 314 318 0
-318 -317 0
-318 -314 0
318 313 319 0
-319 -318 0
-319 -313 0
319 312 320 0
-320 -319 0
-320 -312 0
320 311 321 0
-321 -320 0
-321 -311 0
321 310 322 0
-322 -321 0
-322 -310 0
322 309 323 0
-323 -322 0
-323 -309 0
323 308 324 0
-324 -323 0
-324 -308 0
324 307 325 0
-325 -324 0
-325 -307 0
325 306 326 0
-326 -325 0
-326 -306 0
326 305 327 0
-327 -326 0
-327 -305 0
327 304 328 0
-328 -327 0
-328 -304 0
328 303 329 0
-329 -328 0
-329 -303 0
329 302 330 0
-330 -329 0
-330 -302 0
330 301 331 0
-331 -330 0
-331 -301 0
331 300 332 0
-332 -331 0
-332 -300 0
332 299 333 0
-333 -332 0
-333 -299 0
333 298 334 0
-334 -333 0
-334 -298 0
334 297 335 0
-335 -334 0
-335 -297 0
335 296 336 0
-336 -335 0
-336 -296 0
336 295 337 0
-337 -336 0
-337 -295 0
337 294 338 0
-338 -337 0
-338 -294 0
338 293 339 0
-339 -338 0
-339 -293 0
339 292 340 0
-340 -339 0
-340 -292 0
340 291 341 0
-341 -340 0
-341 -291 0
341 290 342 0
-342 -341 0
-342 -290 0
342 289 343 0
-343 -342 0
-343 -289 0
343 288 344 0
-344 -343 0
-344 -288 0
344 287 345 0
-345 -344 0
-345 -287 0
345 286 346 0
-346 -345 0
-346 -286 0
346 285 347 0
-347 -346 0
-347 -285 0
347 284 348 0
-348 -347 0
-348 -284 0
348 283 349 0
-349 -348 0
-349 -283 0
349 282 350 0
-350 -349 0
-350 -282 0
350 281 351 0
-351 -350 0
-351 -281 0
351 280 352 0
-352 -351 0
-352 -280 0
352 279 353 0
-353 -352 0
-353 -279 0
353 278 354 0
-354 -353 0
-354 -278 0
354 277 355 0
-355 -354 0
-355 -277 0
355 276 356 0
-356 -355 0
-356 -276 0
356 275 357 0
-357 -356 0
-357 -275 0
357 274 358 0
-358 -357 0
-358 -274 0
358 273 359 0
-359 -358 0
-359 -273 0
359 272 360 0
-360 -359 0
-360 -272 0
360 271 361 0
-361 -360 0
-361 -271 0
361 270 362 0
-362 -361 0
-362 -270 0
362 269 363 0
-363 -362 0
-363 -269 0
363 268 364 0
-364 -363 0
-364 -268 0
364 267 365 0
-365 -364 0
-365 -267 0
365 266 366 0
-366 -365 0
-366 -266 0
366 265 367 0
-367 -366 0
-367 -265 0
367 264 368 0
-368 -367 0
-368 -264 0
368 263 369 0
-369 -368 0
-369 -263 0
369 262 370 0
-370 -369 0
-370 -262 0
370 261 371 0
-371 -370 0
-371 -261 0
371 260 372 0
-372 -371 0
-372 -260 0
372 259 373 0
-373 -372 0
-373 -259 0
373 258 374 0
-374 -373 0
-374 -258 0
374 257 375 0
-375 -374 0
-375 -257 0
375 256 376 0
-376 -375 0
-376 -256 0
-193 376 377 0
-377 193 0
-377 -376 0
191 -192 378 0
-378 -191 0
-378 192 0
378 377 379 0
-379 -378 0
-379 -377 0
-379 0
411 410 412 0
-412 -411 0
-412 -410 0
409 -412 413 0
-413 -409 0
-413 412 0
408 -413 414 0
-414 -408 0
-414 413 0
407 -414 415 0
-415 -407 0
-415 414 0
406 -415 416 0
-416 -406 0
-416 415 0
405 -416 417 0
-417 -405 0
-417 416 0
404 -417 418 0
-418 -404 0
-418 417 0
403 -418 419 0
-419 -403 0
-419 418 0
402 -419 420 0
-420 -402 0
-420 419 0
401 -420 421 0
-421 -401 0
-421 420 0
400 -421 422 0
-422 -400 0
-422 421 0
399 -422 423 0
-423 -399 0
-423 422 0
398 -423 424 0
-424 -398 0
-424 423 0
397 -424 425 0
-425 -397 0
-425 424 0
396 -425 426 0
-426 -396 0
-426 425 0
395 -426 427 0
-427 -395 0
-427 426 0
394 -427 428 0
-428 -394 0
-428 427 0
393 -428 429 0
-429 -393 0
-429 428 0
392 -429 430 0
-430 -392 0
-430 429 0
391 -430 431 0
-431 -391 0
-431 430 0
390 -431 432 0
-432 -390 0
-432 431 0
389 -432 433 0
-433 -389 0
-433 432 0
388 -433 434 0
-434 -388 0
-434 433 0
387 -434 435 0
-435 -387 0
-435 434 0
386 -435 436 0
-436 -386 0
-436 435 0
385 -436 437 0
-437 -385 0
-437 436 0
384 -437 438 0
-438 -384 0
-438 437 0
383 -438 439 0
-439 -383 0
-439 438 0
382 -439 440 0
-440 -382 0
-440 439 0
381 -440 441 0
-441 -381 0
-441 440 0
380 441 442 0
-442 -380 0
-442 -441 0
-443 441 -380 0
-443 -441 380 0
443 -441 -380 0
443 441 380 0
-381 440 444 0
-444 381 0
-444 -440 0
444 441 445 0
-445 -444 0
-445 -441 0
-382 439 446 0
-446 382 0
-446 -439 0
446 440 447 0
-447 -446 0
-447 -440 0
-383 438 448 0
-448 383 0
-448 -438 0
448 439 449 0
-449 -448 0
-449 -439 0
-384 437 450 0
-450 384 0
-450 -437 0
450 438 451 0
-451 -450 0
-451 -438 0
-385 436 452 0
-452 385 0
-452 -436 0
452 437 453 0
-453 -452 0
-453 -437 0
-386 435 454 0
-454 386 0
-454 -435 0
454 436 455 0
-455 -454 0
-455 -436 0
-387 434 456 0
-456 387 0
-456 -434 0
456 435 457 0
-457 -456 0
-457 -435 0
-388 433 458 0
-458 388 0
-458 -433 0
458 434 459 0
-459 -458 0
-459 -434 0
-389 432 460 0
-460 389 0
-460 -432 0
460 433 461 0
-461 -460 0
-461 -433 0
-390 431 462 0
-462 390 0
-462 -431 0
462 432 463 0
-463 -462 0
-463 -432 0
-391 430 464 0
-464 391 0
-464 -430 0
464 431 465 0
-465 -464 0
-465 -431 0
-392 429 466 0
-466 392 0
-466 -429 0
466 430 467 0
-467 -466 0
-467 -430 0
-393 428 468 0
-468 393 0
-468 -428 0
468 429 469 0
-469 -468 0
-469 -429 0
-394 427 470 0
-470 394 0
-470 -427 0
470 428 471 0
-471 -470 0
-471 -428 0
-395 426 472 0
-472 395 0
-472 -426 0
472 427 473 0
-473 -472 0
-473 -427 0
-396 425 474 0
-474 396 0
-474 -425 0
474 426 475 0
-475 -474 0
-475 -426 0
-397 424 476 0
-476 397 0
-476 -424 0
476 425 477 0
-477 -476 0
-477 -425 0
-398 423 478 0
-478 398 0
-478 -423 0
478 424 479 0
-479 -478 0
-479 -424 0
-399 422 480 0
-480 399 0
-480 -422 0
480 423 481 0
-481 -480 0
-481 -423 0
-400 421 482 0
-482 400 0
-482 -421 0
482 422 483 0
-483 -482 0
-483 -422 0
-401 420 484 0
-484 401 0
-484 -420 0
484 421 485 0
-485 -484 0
-485 -421 0
-402 419 486 0
-486 402 0
-486 -419 0
486 420 487 0
-487 -486 0
-487 -420 0
-403 418 488 0
-488 403 0
-488 -418 0
488 419 489 0
-489 -488 0
-489 -419 0
-404 417 490 0
-490 404 0
-490 -417 0
490 418 491 0
-491 -490 0
-491 -418 0
-405 416 492 0
-492 405 0
-492 -416 0
492 417 493 0
-493 -492 0
-493 -417 0
-406 415 494 0
-494 406 0
-494 -415 0
494 416 495 0
-495 -494 0
-495 -416 0
-407 414 496 0
-496 407 0
-496 -414 0
496 415 497 0
-497 -496 0
-497 -415 0
-408 413 498 0
-498 408 0
-498 -413 0
498 414 499 0
-499 -498 0
-499 -414 0
-409 412 500 0
-500 409 0
-500 -412 0
500 413 501 0
-501 -500 0
-501 -413 0
-411 -410 502 0
-502 411 0
-502 410 0
502 412 503 0
-503 -502 0
-503 -412 0
-501 -499 504 0
-504 501 0
-504 499 0
-497 -504 505 0
-505 497 0
-505 504 0
-495 -505 506 0
-506 495 0
-506 505 0
-493 -506 507 0
-507 493 0
-507 506 0
-491 -507 508 0
-508 491 0
-508 507 0
-489 -508 509 0
-509 489 0
-509 508 0
-487 -509 510 0
-510 487 0
-510 509 0
-485 -510 511 0
-511 485 0
-511 510 0
-483 -511 512 0
-512 483 0
-512 511 0
-481 -512 513 0
-513 481 0
-513 512 0
-479 -513 514 0
-514 479 0
-514 513 0
-477 -514 515 0
-515 477 0
-515 514 0
-475 -515 516 0
-516 475 0
-516 515 0
-473 -516 517 0
-517 473 0
-517 516 0
-471 -517 518 0
-518 471 0
-518 517 0
-469 -518 519 0
-519 469 0
-519 518 0
-467 -519 520 0
-520 467 0
-520 519 0
-465 -520 521 0
-521 465 0
-521 520 0
-463 -521 522 0
-522 463 0
-522 521 0
-461 -522 523 0
-523 461 0
-523 522 0
-459 -523 524 0
-524 459 0
-524 523 0
-457 -524 525 0
-525 457 0
-525 524 0
-455 -525 526 0
-526 455 0
-526 525 0
-453 -526 527 0
-527 453 0
-527 526 0
-451 -527 528 0
-528 451 0
-528 527 0
-449 -528 529 0
-529 449 0
-529 528 0
-447 -529 530 0
-530 447 0
-530 529 0
-445 -530 531 0
-531 445 0
-531 530 0
-443 -531 532 0
-532 443 0
-532 531 0
-442 532 533 0
-533 442 0
-533 -532 0
-534 -532 -442 0
-534 532 442 0
534 532 -442 0
534 -532 442 0
443 531 535 0
-535 -443 0
-535 -531 0
532 535 536 0
-536 -532 0
-536 -535 0
445 530 537 0
-537 -445 0
-537 -530 0
531 537 538 0
-538 -531 0
-538 -537 0
447 529 539 0
-539 -447 0
-539 -529 0
530 539 540 0
-540 -530 0
-540 -539 0
449 528 541 0
-541 -449 0
-541 -528 0
529 541 542 0
-542 -529 0
-542 -541 0
451 527 543 0
-543 -451 0
-543 -527 0
528 543 544 0
-544 -528 0
-544 -543 0
453 526 545 0
-545 -453 0
-545 -526 0
527 545 546 0
-546 -527 0
-546 -545 0
455 525 547 0
-547 -455 0
-547 -525 0
526 547 548 0
-548 -526 0
-548 -547 0
457 524 549 0
-549 -457 0
-549 -524 0
525 549 550 0
-550 -525 0
-550 -549 0
459 523 551 0
-551 -459 0
-551 -523 0
524 551 552 0
-552 -524 0
-552 -551 0
461 522 553 0
-553 -461 0
-553 -522 0
523 553 554 0
-554 -523 0
-554 -553 0
463 521 555 0
-555 -463 0
-555 -521 0
522 555 556 0
-556 -522 0
-556 -555 0
465 520 557 0
-557 -465 0
-557 -520 0
521 557 558 0
-558 -521 0
-558 -557 0
467 519 559 0
-559 -467 0
-559 -519 0
520 559 560 0
-560 -520 0
-560 -559 0
469 518 561 0
-561 -469 0
-561 -518 0
519 561 562 0
-562 -519 0
-562 -561 0
471 517 563 0
-563 -471 0
-563 -517 0
518 563 564 0
-564 -518 0
-564 -563 0
473 516 565 0
-565 -473 0
-565 -516 0
517 565 566 0
-566 -517 0
-566 -565 0
475 515 567 0
-567 -475 0
-567 -515 0
516 567 568 0
-568 -516 0
-568 -567 0
477 514 569 0
-569 -477 0
-569 -514 0
515 569 570 0
-570 -515 0
-570 -569 0
479 513 571 0
-571 -479 0
-571 -513 0
514 571 572 0
-572 -514 0
-572 -571 0
481 512 573 0
-573 -481 0
-573 -512 0
513 573 574 0
-574 -513 0
-574 -573 0
483 511 575 0
-575 -483 0
-575 -511 0
512 575 576 0
-576 -512 0
-576 -575 0
485 510 577 0
-577 -485 0
-577 -510 0
511 577 578 0
-578 -511 0
-578 -577 0
487 509 579 0
-579 -487 0
-579 -509 0
510 579 580 0
-580 -510 0
-580 -579 0
489 508 581 0
-581 -489 0
-581 -508 0
509 581 582 0
-582 -509 0
-582 -581 0
491 507 583 0
-583 -491 0
-583 -507 0
508 583 584 0
-584 -508 0
-584 -583 0
493 506 585 0
-585 -493 0
-585 -506 0
507 585 586 0
-586 -507 0
-586 -585 0
495 505 587 0
-587 -495 0
-587 -505 0
506 587 588 0
-588 -506 0
-588 -587 0
497 504 589 0
-589 -497 0
-589 -504 0
505 589 590 0
-590 -505 0
-590 -589 0
501 499 591 0
-591 -501 0
-591 -499 0
504 591 592 0
-592 -504 0
-592 -591 0
411 503 593 0
-593 -411 0
-593 -503 0
-501 -593 594 0
-594 501 0
-594 593 0
592 -594 595 0
-595 -592 0
-595 594 0
590 -595 596 0
-596 -590 0
-596 595 0
588 -596 597 0
-597 -588 0
-597 596 0
586 -597 598 0
-598 -586 0
-598 597 0
584 -598 599 0
-599 -584 0
-599 598 0
582 -599 600 0
-600 -582 0
-600 599 0
580 -600 601 0
-601 -580 0
-601 600 0
578 -601 602 0
-602 -578 0
-602 601 0
576 -602 603 0
-603 -576 0
-603 602 0
574 -603 604 0
-604 -574 0
-604 603 0
572 -604 605 0
-605 -572 0
-605 604 0
570 -605 606 0
-606 -570 0
-606 605 0
568 -606 607 0
-607 -568 0
-607 606 0
566 -607 608 0
-608 -566 0
-608 607 0
564 -608 609 0
-609 -564 0
-609 608 0
562 -609 610 0
-610 -562 0
-610 609 0
560 -610 611 0
-611 -560 0
-611 610 0
558 -611 612 0
-612 -558 0
-612 611 0
556 -612 613 0
-613 -556 0
-613 612 0
554 -613 614 0
-614 -554 0
-614 613 0
552 -614 615 0
-615 -552 0
-615 614 0
550 -615 616 0
-616 -550 0
-616 615 0
548 -616 617 0
-617 -548 0
-617 616 0
546 -617 618 0
-618 -546 0
-618 617 0
544 -618 619 0
-619 -544 0
-619 618 0
542 -619 620 0
-620 -542 0
-620 619 0
540 -620 621 0
-621 -540 0
-621 620 0
538 -621 622 0
-622 -538 0
-622 621 0
536 -622 623 0
-623 -536 0
-623 622 0
534 -623 624 0
-624 -534 0
-624 623 0
533 -624 625 0
-625 -533 0
-625 624 0
-625 0
-533 0
-628 627 -626 0
-628 -627 626 0
628 -627 -626 0
628 627 626 0
629 -660 691 0
-691 -629 0
-691 660 0
-629 660 692 0
-692 629 0
-692 -660 0
630 -661 693 0
-693 -630 0
-693 661 0
-630 661 694 0
-694 630 0
-694 -661 0
631 -662 695 0
-695 -631 0
-695 662 0
-631 662 696 0
-696 631 0
-696 -662 0
632 -663 697 0
-697 -632 0
-697 663 0
-632 663 698 0
-698 632 0
-698 -663 0
633 -664 699 0
-699 -633 0
-699 664 0
-633 664 700 0
-700 633 0
-700 -664 0
634 -665 701 0
-701 -634 0
-701 665 0
-634 665 702 0
-702 634 0
-702 -665 0
635 -666 703 0
-703 -635 0
-703 666 0
-635 666 704 0
-704 635 0
-704 -666 0
636 -667 705 0
-705 -636 0
-705 667 0
-636 667 706 0
-706 636 0
-706 -667 0
637 -668 707 0
-707 -637 0
-707 668 0
-637 668 708 0
-708 637 0
-708 -668 0
638 -669 709 0
-709 -638 0
-709 669 0
-638 669 710 0
-710 638 0
-710 -669 0
639 -670 711 0
-711 -639 0
-711 670 0
-639 670 712 0
-712 639 0
-712 -670 0
640 -671 713 0
-713 -640 0
-713 671 0
-640 671 714 0
-714 640 0
-714 -671 0
641 -672 715 0
-715 -641 0
-715 672 0
-641 672 716 0
-716 641 0
-716 -672 0
642 -673 717 0
-717 -642 0
-717 673 0
-642 673 718 0
-718 642 0
-718 -673 0
643 -674 719 0
-719 -643 0
-719 674 0
-643 674 720 0
-720 643 0
-720 -674 0
644 -675 721 0
-721 -644 0
-721 675 0
-644 675 722 0
-722 644 0
-722 -675 0
645 -676 723 0
-723 -645 0
-723 676 0
-645 676 724 0
-724 645 0
-724 -676 0
646 -677 725 0
-725 -646 0
-725 677 0
-646 677 726 0
-726 646 0
-726 -677 0
647 -678 727 0
-727 -647 0
-727 678 0
-647 678 728 0
-728 647 0
-728 -678 0
648 -679 729 0
-729 -648 0
-729 679 0
-648 679 730 0
-730 648 0
-730 -679 0
649 -680 731 0
-731 -649 0
-731 680 0
-649 680 732 0
-732 649 0
-732 -680 0
650 -681 733 0
-733 -650 0
-733 681 0
-650 681 734 0
-734 650 0
-734 -681 0
651 -682 735 0
-735 -651 0
-735 682 0
-651 682 736 0
-736 651 0
-736 -682 0
652 -683 737 0
-737 -652 0
-737 683 0
-652 683 738 0
-738 652 0
-738 -683 0
653 -684 739 0
-739 -653 0
-739 684 0
-653 684 740 0
-740 653 0
-740 -684 0
654 -685 741 0
-741 -654 0
-741 685 0
-654 685 742 0
-742 654 0
-742 -685 0
655 -686 743 0
-743 -655 0
-743 686 0
-655 686 744 0
-744 655 0
-744 -686 0
656 -687 745 0
-745 -656 0
-745 687 0
-656 687 746 0
-746 656 0
-746 -687 0
657 -688 747 0
-747 -657 0
-747 688 0
-657 688 748 0
-748 657 0
-748 -688 0
658 -689 749 0
-749 -658 0
-749 689 0
-658 689 750 0
-750 658 0
-750 -689 0
659 -690 751 0
-751 -659 0
-751 690 0
-751 750 752 0
-752 751 0
-752 -750 0
752 749 753 0
-753 -752 0
-753 -749 0
753 748 754 0
-754 -753 0
-754 -748 0
754 747 755 0
-755 -754 0
-755 -747 0
755 746 756 0
-756 -755 0
-756 -746 0
756 745 757 0
-757 -756 0
-757 -745 0
757 744 758 0
-758 -757 0
-758 -744 0
758 743 759 0
-759 -758 0
-759 -743 0
759 742 760 0
-760 -759 0
-760 -742 0
760 741 761 0
-761 -760 0
-761 -741 0
761 740 762 0
-762 -761 0
-762 -740 0
762 739 763 0
-763 -762 0
-763 -739 0
763 738 764 0
-764 -763 0
-764 -738 0
764 737 765 0
-765 -764 0
-765 -737 0
765 736 766 0
-766 -765 0
-766 -736 0
766 735 767 0
-767 -766 0
-767 -735 0
767 734 768 0
-768 -767 0
-768 -734 0
768 733 769 0
-769 -768 0
-769 -733 0
769 732 770 0
-770 -769 0
-770 -732 0
770 731 771 0
-771 -770 0
-771 -731 0
771 730 772 0
-772 -771 0
-772 -730 0
772 729 773 0
-773 -772 0
-773 -729 0
773 728 774 0
-774 -773 0
-774 -728 0
774 727 775 0
-775 -774 0
-775 -727 0
775 726 776 0
-776 -775 0
-776 -726 0
776 725 777 0
-777 -776 0
-777 -725 0
777 724 778 0
-778 -777 0
-778 -724 0
778 723 779 0
-779 -778 0
-779 -723 0
779 722 780 0
-780 -779 0
-780 -722 0
780 721 781 0
-781 -780 0
-781 -721 0
781 720 782 0
-782 -781 0
-782 -720 0
782 719 783 0
-783 -782 0
-783 -719 0
783 718 784 0
-784 -783 0
-784 -718 0
784 717 785 0
-785 -784 0
-785 -717 0
785 716 786 0
-786 -785 0
-786 -716 0
786 715 787 0
-787 -786 0
-787 -715 0
787 714 788 0
-788 -787 0
-788 -714 0
788 713 789 0
-789 -788 0
-789 -713 0
789 712 790 0
-790 -789 0
-790 -712 0
790 711 791 0
-791 -790 0
-791 -711 0
791 710 792 0
-792 -791 0
-792 -710 0
792 709 793 0
-793 -792 0
-793 -709 0
793 708 794 0
-794 -793 0
-794 -708 0
794 707 795 0
-795 -794 0
-795 -707 0
795 706 796 0
-796 -795 0
-796 -706 0
796 705 797 0
-797 -796 0
-797 -705 0
797 704 798 0
-798 -797 0
-798 -704 0
798 703 799 0
-799 -798 0
-799 -703 0
799 702 800 0
-800 -799 0
-800 -702 0
800 701 801 0
-801 -800 0
-801 -701 0
801 700 802 0
-802 -801 0
-802 -700 0
802 699 803 0
-803 -802 0
-803 -699 0
803 698 804 0
-804 -803 0
-804 -698 0
804 697 805 0
-805 -804 0
-805 -697 0
805 696 806 0
-806 -805 0
-806 -696 0
806 695 807 0
-807 -806 0
-807 -695 0
807 694 808 0
-808 -807 0
-808 -694 0
808 693 809 0
-809 -808 0
-809 -693 0
809 692 810 0
-810 -809 0
-810 -692 0
810 691 811 0
-811 -810 0
-811 -691 0
-628 811 812 0
-812 628 0
-812 -811 0
626 -627 813 0
-813 -626 0
-813 627 0
813 812 814 0
-814 -813 0
-814 -812 0
-814 0
-816 -815 627 0
-816 815 -627 0
816 815 627 0
816 -815 -627 0
629 -817 848 0
-848 -629 0
-848 817 0
-629 817 849 0
-849 629 0
-849 -817 0
630 -818 850 0
-850 -630 0
-850 818 0
-630 818 851 0
-851 630 0
-851 -818 0
631 -819 852 0
-852 -631 0
-852 819 0
-631 819 853 0
-853 631 0
-853 -819 0
632 -820 854 0
-854 -632 0
-854 820 0
-632 820 855 0
-855 632 0
-855 -820 0
633 -821 856 0
-856 -633 0
-856 821 0
-633 821 857 0
-857 633 0
-857 -821 0
634 -822 858 0
-858 -634 0
-858 822 0
-634 822 859 0
-859 634 0
-859 -822 0
635 -823 860 0
-860 -635 0
-860 823 0
-635 823 861 0
-861 635 0
-861 -823 0
636 -824 862 0
-862 -636 0
-862 824 0
-636 824 863 0
-863 636 0
-863 -824 0
637 -825 864 0
-864 -637 0
-864 825 0
-637 825 865 0
-865 637 0
-865 -825 0
638 -826 866 0
-866 -638 0
-866 826 0
-638 826 867 0
-867 638 0
-867 -826 0
639 -827 868 0
-868 -639 0
-868 827 0
-639 827 869 0
-869 639 0
-869 -827 0
640 -828 870 0
-870 -640 0
-870 828 0
-640 828 871 0
-871 640 0
-871 -828 0
641 -829 872 0
-872 -641 0
-872 829 0
-641 829 873 0
-873 641 0
-873 -829 0
642 -830 874 0
-874 -642 0
-874 830 0
-642 830 875 0
-875 642 0
-875 -830 0
643 -831 876 0
-876 -643 0
-876 831 0
-643 831 877 0
-877 643 0
-877 -831 0
644 -832 878 0
-878 -644 0
-878 832 0
-644 832 879 0
-879 644 0
-879 -832 0
645 -833 880 0
-880 -645 0
-880 833 0
-645 833 881 0
-881 645 0
-881 -833 0
646 -834 882 0
-882 -646 0
-882 834 0
-646 834 883 0
-883 646 0
-883 -834 0
647 -835 884 0
-884 -647 0
-884 835 0
-647 835 885 0
-885 647 0
-885 -835 0
648 -836 886 0
-886 -648 0
-886 836 0
-648 836 887 0
-887 648 0
-887 -836 0
649 -837 888 0
-888 -649 0
-888 837 0
-649 837 889 0
-889 649 0
-889 -837 0
650 -838 890 0
-890 -650 0
-890 838 0
-650 838 891 0
-891 650 0
-891 -838 0
651 -839 892 0
-892 -651 0
-892 839 0
-651 839 893 0
-893 651 0
-893 -839 0
652 -840 894 0
-894 -652 0
-894 840 0
-652 840 895 0
-895 652 0
-895 -840 0
653 -841 896 0
-896 -653 0
-896 841 0
-653 841 897 0
-897 653 0
-897 -841 0
654 -842 898 0
-898 -654 0
-898 842 0
-654 842 899 0
-899 654 0
-899 -842 0
655 -843 900 0
-900 -655 0
-900 843 0
-655 843 901 0
-901 655 0
-901 -843 0
656 -844 902 0
-902 -656 0
-902 844 0
-656 844 903 0
-903 656 0
-903 -844 0
657 -845 904 0
-904 -657 0
-904 845 0
-657 845 905 0
-905 657 0
-905 -845 0
658 -846 906 0
-906 -658 0
-906 846 0
-658 846 907 0
-907 658 0
-907 -846 0
659 -847 908 0
-908 -659 0
-908 847 0
-908 907 909 0
-909 908 0
-909 -907 0
909 906 910 0
-910 -909 0
-910 -906 0
910 905 911 0
-911 -910 0
-911 -905 0
911 904 912 0
-912 -911 0
-912 -904 0
912 903 913 0
-913 -912 0
-913 -903 0
913 902 914 0
-914 -913 0
-914 -902 0
914 901 915 0
-915 -914 0
-915 -901 0
915 900 916 0
-916 -915 0
-916 -900 0
916 899 917 0
-917 -916 0
-917 -899 0
917 898 918 0
-918 -917 0
-918 -898 0
918 897 919 0
-919 -918 0
-919 -897 0
919 896 920 0
-920 -919 0
-920 -896 0
920 895 921 0
-921 -920 0
-921 -895 0
921 894 922 0
-922 -921 0
-922 -894 0
922 893 923 0
-923 -922 0
-923 -893 0
923 892 924 0
-924 -923 0
-924 -892 0
924 891 925 0
-925 -924 0
-925 -891 0
925 890 926 0
-926 -925 0
-926 -890 0
926 889 927 0
-927 -926 0
-927 -889 0
927 888 928 0
-928 -927 0
-928 -888 0
928 887 929 0
-929 -928 0
-929 -887 0
929 886 930 0
-930 -929 0
-930 -886 0
930 885 931 0
-931 -930 0
-931 -885 0
931 884 932 0
-932 -931 0
-932 -884 0
932 883 933 0
-933 -932 0
-933 -883 0
933 882 934 0
-934 -933 0
-934 -882 0
934 881 935 0
-935 -934 0
-935 -881 0
935 880 936 0
-936 -935 0
-936 -880 0
936 879 937 0
-937 -936 0
-937 -879 0
937 878 938 0
-938 -937 0
-938 -878 0
938 877 939 0
-939 -938 0
-939 -877 0
939 876 940 0
-940 -939 0
-940 -876 0
940 875 941 0
-941 -940 0
-941 -875 0
941 874 942 0
-942 -941 0
-942 -874 0
942 873 943 0
-943 -942 0
-943 -873 0
943 872 944 0
-944 -943 0
-944 -872 0
944 871 945 0
-945 -944 0
-945 -871 0
945 870 946 0
-946 -945 0
-946 -870 0
946 869 947 0
-947 -946 0
-947 -869 0
947 868 948 0
-948 -947 0
-948 -868 0
948 867 949 0
-949 -948 0
-949 -867 0
949 866 950 0
-950 -949 0
-950 -866 0
950 865 951 0
-951 -950 0
-951 -865 0
951 864 952 0
-952 -951 0
-952 -864 0
952 863 953 0
-953 -952 0
-953 -863 0
953 862 954 0
-954 -953 0
-954 -862 0
954 861 955 0
-955 -954 0
-955 -861 0
955 860 956 0
-956 -955 0
-956 -860 0
956 859 957 0
-957 -956 0
-957 -859 0
957 858 958 0
-958 -957 0
-958 -858 0
958 857 959 0
-959 -958 0
-959 -857 0
959 856 960 0
-960 -959 0
-960 -856 0
960 855 961 0
-961 -960 0
-961 -855 0
961 854 962 0
-962 -961 0
-962 -854 0
962 853 963 0
-963 -962 0
-963 -853 0
963 852 964 0
-964 -963 0
-964 -852 0
964 851 965 0
-965 -964 0
-965 -851 0
965 850 966 0
-966 -965 0
-966 -850 0
966 849 967 0
-967 -966 0
-967 -849 0
967 848 968 0
-968 -967 0
-968 -848 0
-816 968 969 0
-969 816 0
-969 -968 0
-627 815 970 0
-970 627 0
-970 -815 0
970 969 971 0
-971 -970 0
-971 -969 0
-971 0
1002 1001 1003 0
-1003 -1002 0
-1003 -1001 0
1000 -1003 1004 0
-1004 -1000 0
-1004 1003 0
-999 1004 1005 0
-1005 999 0
-1005 -1004 0
-998 -1005 1006 0
-1006 998 0
-1006 1005 0
997 1006 1007 0
-1007 -997 0
-1007 -1006 0
-996 1007 1008 0
-1008 996 0
-1008 -1007 0
995 1008 1009 0
-1009 -995 0
-1009 -1008 0
994 -1009 1010 0
-1010 -994 0
-1010 1009 0
-993 1010 1011 0
-1011 993 0
-1011 -1010 0
992 1011 1012 0
-1012 -992 0
-1012 -1011 0
991 -1012 1013 0
-1013 -991 0
-1013 1012 0
990 -1013 1014 0
-1014 -990 0
-1014 1013 0
989 -1014 1015 0
-1015 -989 0
-1015 1014 0
988 -1015 1016 0
-1016 -988 0
-1016 1015 0
987 -1016 1017 0
-1017 -987 0
-1017 1016 0
986 -1017 1018 0
-1018 -986 0
-1018 1017 0
985 -1018 1019 0
-1019 -985 0
-1019 1018 0
984 -1019 1020 0
-1020 -984 0
-1020 1019 0
983 -1020 1021 0
-1021 -983 0
-1021 1020 0
982 -1021 1022 0
-1022 -982 0
-1022 1021 0
981 -1022 1023 0
-1023 -981 0
-1023 1022 0
980 -1023 1024 0
-1024 -980 0
-1024 1023 0
979 -1024 1025 0
-1025 -979 0
-1025 1024 0
978 -1025 1026 0
-1026 -978 0
-1026 1025 0
977 -1026 1027 0
-1027 -977 0
-1027 1026 0
976 -1027 1028 0
-1028 -976 0
-1028 1027 0
975 -1028 1029 0
-1029 -975 0
-1029 1028 0
974 -1029 1030 0
-1030 -974 0
-1030 1029 0
973 -1030 1031 0
-1031 -973 0
-1031 1030 0
972 -1031 1032 0
-1032 -972 0
-1032 1031 0
-1032 0
-1000 -999 1033 0
-1033 1000 0
-1033 999 0
998 1033 1034 0
-1034 -998 0
-1034 -1033 0
-997 1034 1035 0
-1035 997 0
-1035 -1034 0
996 1035 1036 0
-1036 -996 0
-1036 -1035 0
995 -1036 1037 0
-1037 -995 0
-1037 1036 0
-994 1037 1038 0
-1038 994 0
-1038 -1037 0
993 1038 1039 0
-1039 -993 0
-1039 -1038 0
992 -1039 1040 0
-1040 -992 0
-1040 1039 0
991 -1040 1041 0
-1041 -991 0
-1041 1040 0
990 -1041 1042 0
-1042 -990 0
-1042 1041 0
989 -1042 1043 0
-1043 -989 0
-1043 1042 0
988 -1043 1044 0
-1044 -988 0
-1044 1043 0
987 -1044 1045 0
-1045 -987 0
-1045 1044 0
986 -1045 1046 0
-1046 -986 0
-1046 1045 0
985 -1046 1047 0
-1047 -985 0
-1047 1046 0
984 -1047 1048 0
-1048 -984 0
-1048 1047 0
983 -1048 1049 0
-1049 -983 0
-1049 1048 0
982 -1049 1050 0
-1050 -982 0
-1050 1049 0
981 -1050 1051 0
-1051 -981 0
-1051 1050 0
980 -1051 1052 0
-1052 -980 0
-1052 1051 0
979 -1052 1053 0
-1053 -979 0
-1053 1052 0
978 -1053 1054 0
-1054 -978 0
-1054 1053 0
977 -1054 1055 0
-1055 -977 0
-1055 1054 0
976 -1055 1056 0
-1056 -976 0
-1056 1055 0
975 -1056 1057 0
-1057 -975 0
-1057 1056 0
974 -1057 1058 0
-1058 -974 0
-1058 1057 0
973 -1058 1059 0
-1059 -973 0
-1059 1058 0
972 -1059 1060 0
-1060 -972 0
-1060 1059 0
-1060 0
